proyfinal/src/viki/013/andrea/andrea-localstore/experimentInOfficeAgust.take6/worker_2/8fbacc92-c5b3-47bd-bee1-cfba1bc81c65.als.cnf.out
Reading from standard input... Use '--help' for help.
============================[ Problem Statistics ]=============================
|                                                                             |
|  Number of variables:         87638                                         |
|  Number of clauses:          161767                                         |
|  Parse time:                   0.04 s                                       |
|                                                                             |
============================[ Search Statistics ]==============================
| Conflicts |          ORIGINAL         |          LEARNT          | Progress |
|           |    Vars  Clauses Literals |    Limit  Clauses Lit/Cl |          |
===============================================================================
|       100 |   63785   110304   275486 |    40444      100     40 | 27.218 % |
|       250 |   63785   110304   275486 |    44489      250     35 | 27.218 % |
|       475 |   63785   110304   275486 |    48938      475     47 | 27.218 % |
|       812 |   63785   110304   275486 |    53832      812     48 | 27.218 % |
|      1318 |   63785   110304   275486 |    59215     1318     60 | 27.218 % |
|      2077 |   63785   110304   275486 |    65136     2077     99 | 27.218 % |
|      3216 |   63785   110304   275486 |    71650     3216     92 | 27.218 % |
|      4924 |   63754   110138   275093 |    78815     4772     93 | 27.253 % |
|      7486 |   63673   109808   274324 |    86697     7328     87 | 27.346 % |
|     11330 |   63653   109724   274131 |    95366    11169     94 | 27.368 % |
|     17096 |   63629   109624   273902 |   104903    15524    108 | 27.396 % |
===============================================================================
restarts              : 63
conflicts             : 18045          (6379 /sec)
decisions             : 75328          (0.00 % random) (26630 /sec)
propagations          : 27439383       (9700382 /sec)
conflict literals     : 1874700        (47.40 % deleted)
Memory used           : 42.15 MB
CPU time              : 2.82869 s

INDETERMINATE
